n_res = 2;
rcap = [19, 21];
rtype = [1, 1];
n_tasks = 12;
modes = [ {1, 2, 3}, {4, 5, 6}, {7, 8, 9}, {10, 11, 12}, {13, 14, 15}, {16, 17, 18}, {19, 20, 21}, {22, 23, 24}, {25, 26, 27}, {28, 29, 30}, {31, 32, 33}, {34, 35, 36} ];
succ = [ {4, 5}, {4, 5, 6}, {7, 9, 10}, {7, 9, 10}, {8, 9}, {7, 10}, {8, 12}, {11}, {11, 12}, {}, {}, {} ];
n_opt = 36;
dur = [4, 6, 8, 5, 9, 10, 4, 6, 8, 3, 6, 10, 1, 4, 4, 3, 5, 7, 3, 4, 10, 1, 4, 10, 1, 6, 9, 1, 3, 8, 1, 4, 6, 2, 2, 4];
rreq = [|  7,  5,  4,  7,  5,  4,  9,  8,  5,  6,  5,  4,  4,  4,  3,  7,  6,  6,  7,  4,  1, 10,  8,  7,  7,  4,  2,  2,  2,  1,  7,  6,  3,  8,  5,  3
        |  8,  7,  5,  9,  9,  9,  8,  6,  5,  8,  7,  7,  8,  7,  8,  7,  4,  2,  8,  6,  4,  6,  5,  5,  5,  4,  3,  5,  4,  1,  4,  4,  3,  8, 10,  7 |];
